experiment/data/hgs-res/Vrp-Set-M-n200/Vrp-Set-M-n200-hgs/1.hgs1.tour
Route #1: 156
Route #2: 59 151 92 98 37 100 193 91 85 93 104 99 96 6
Route #3: 89 166 60 84 17 113 86 140 38 14 43 15 57 144 137
Route #4: 87 172 42 142 192 119 44 191 141 16 61 173 5
Route #5: 53 152 58 13 117 97 95 94 183 112
Route #6: 105 21 73 171 74 75 133 22 41 145 115 178 2
Route #7: 40 72 197 56 186 23 67 170 25 55 165 130 54
Route #8: 180 198 110 39 187 139 4 155 179 149 26
Route #9: 76 196 116 68 80 150 177 109 12 154 138
Route #10: 184 77 3 158 185 79 129 169 121 29 24 163 134 195
Route #11: 1 51 103 161 9 120 81 33 157 102
Route #12: 50 78 34 164 135 35 136 65 71 66 188 20 122 101
Route #13: 27 167 127 190 31 162 69 132 176 111 28
Route #14: 10 189 108 90 126 63 181 32 131 160 128 30 70
Route #15: 146 88 148 159 62 182 48 7 194 106 153 52
Route #16: 123 19 107 175 11 64 49 143 36 47 168 124 46 82
Route #17: 147 118 83 199 125 45 174 8 114 18
Cost 1291.45
